# Big colloid particles and small LJ particles

# INITIALISATION
units		lj 
atom_style	sphere
dimension	2  #gives dimensionality of simulation

# SYSTEM DEFINITION
lattice		sq 0.01 #square unit cell with edge length = 0.01
region		box block 0 30 0 30 -0.5 0.5 #changed ID from box to mybox to avoid confusion, gives xi min and max
create_box	2 box #changed ID from box to mybox, uses 2 atom types
create_atoms	1 box #atoms of type 1 created in region on lattice points
#N.B 'box' is correct in the line above; it specifies placement on lattic points

# SIMULATION SETTINGS
set		group all type/fraction 2 0.96 23984 
#sets 96% of group of all atoms to have the type 2. 23984 is the seed


set		type 1 mass 9
set		type 2 mass 1
#two types of atoms have different masses

velocity	all create 1.44 87287 loop geom
#all particles are allocated random velocities for T = 1.44. geom is a type of looping

# multi neighbor and comm for efficiency

neighbor	1 multi #This sets parameters for building pairwise neighbor lists
neigh_modify	delay 0 #No delay on building new neighbour lists
comm_modify     mode multi #affects inter-processor communication of atom information

# colloid potential

pair_style	colloid 12.5
pair_coeff	1 1  1.0 1.0 5.0 5.0 12.5 #for interactions between particles of type 1
pair_coeff	1 2  5.0 1.0 5.0 0.0 7.0
pair_coeff	2 2 10.0 1.0 0.0 0.0 2.5
#used for interaction type, with coefficients of that interaction type

fix		1 all npt temp 2.0 2.0 1.0 iso 0.0 1.0 10.0 drag 1.0 &
	        mtk no pchain 0 tchain 1
#Constant n,P,T compression at T = 2, from P = 0 to 1, no mkt adjustment, original thermostat
fix		2 all enforce2d # zero out z-dimension velocity and force

dump		1 all atom 1000 dump.colloid

#dump		2 all image 1000 image.*.jpg type type &
#		zoom 1.5 center d 0.5 0.5 0.5
#dump_modify	2 pad 5 adiam 1 5.0 adiam 2 1.5

dump		3 all movie 1000 movie.mpg type type &
#		zoom 1.5 center d 0.5 0.5 0.5
#dump_modify	3 pad 5 adiam 1 5.0 adiam 2 1.5

thermo_style	custom step temp epair etotal press vol
#output timestep, temperature, pairwise energy, total energy, pressure, volume
thermo		1000  #output thermodynamic variables every 1000 timesteps

timestep	0.005
#size of timestep in given time units

run		50000
#number of timesteps
